p cnf 7 27
-7 3 -1 0
6 0
2 3 6 0
7 0
1 2 5 0
2 -3 6 0
2 6 0
-5 5 0
-3 5 0
-1 0
-3 0
1 -5 -3 0
-3 0
1 2 5 -3 0
-7 3 6 0
6 0
1 -2 0
-6 2 4 -3 0
1 -3 0
-6 -4 5 -2 0
-7 -5 4 7 0
-3 0
-5 5 -1 0
-7 -6 0
-6 -5 0
6 -1 0
-7 -5 -4 -3 0
